&BANDS
 outdir = '/scratch/beachk2/Korea/W-V-Se/noSOC/WSe'
 prefix = 'v'
 filband = '/scratch/beachk2/Korea/W-V-Se/noSOC/WSe/v.band.dat'
 lsym = .false.
/

