&PROJWFC
prefix='v'
outdir='/scratch/beachk2/Korea/W-V-Se/noSOC/WSe'
degauss=.01
DeltaE=.01
/
