&CONTROL
  calculation = "bands",
  !restart_mode = 'restart'
  max_seconds = 240000
  pseudo_dir  = "/scratch/beachk2/Korea/W-V-Se",
  outdir      = "/scratch/beachk2/Korea/W-V-Se/noSOC/WSe",
  prefix='v'
  wfcdir="/scratch/beachk2/Korea/W-V-Se/noSOC/WSe"
  tstress     =.false.
  tprnfor     =.false.
/
&SYSTEM
  ibrav       = 0,
  nat         = 108,
  ntyp        = 3,
  ecutwfc     = 30,
  occupations = "smearing",
  smearing    = "m-v",
  degauss     = 0.005,
  !noncolin=.true.
  !lspinorb=.true. 
  !nspin = 2
  !starting_magnetization(2)= 0.5,
  lda_plus_u=.true.
  lda_plus_u_kind=1
  Hubbard_U(1)=0
  Hubbard_U(2)=3
  Hubbard_U(3)=0
  U_projection_type='atomic'
  !starting_spin_angle=.true.
  !angle1(2)=54, angle2(2)=45,
/
&ELECTRONS
  conv_thr    = 1.D-7,
  mixing_beta = 0.2D0,
  electron_maxstep=200,
/
&IONS
  bfgs_ndim         = 2,
/
&CELL
press=0
cell_dofree='all'
press_conv_thr=0.1
/
ATOMIC_SPECIES
W  183.84  W.pbesol-spn-kjpaw_psl.0.2.3.UPF
V  50.94   V.pbesol-spn-kjpaw_psl.0.2.3.UPF
Se  78.96  Se.pbesol-n-kjpaw_psl.0.2.UPF
CELL_PARAMETERS (angstrom)
 19.6646823883         0.0000000000         0.0000000000
 -9.8323396472        17.0301065891         0.0000000000
  0.0000000000         0.0000000000        19.9999847412
ATOMIC_POSITIONS (angstrom)
W       -3.269319693   7.577714356   7.240000060
W        0.000839675   7.577321155   7.239998370
W        3.280584763   7.577710089   7.240000742
W        6.559089607   7.576243263   7.239997889
W       -4.913532706  10.424425597   7.240003463
W       -1.637673383  10.415861547   7.239996647
W        1.642730440  10.414797467   7.239997515
W        4.920320401  10.414485992   7.239997243
W        9.826440724   7.578214215   7.239999653
V       13.109796018   7.579427207   7.240300409
W        8.196290793  10.416270469   7.239993344
W       11.469193006  10.423587608   7.240002111
W       -6.552076300  13.253660610   7.239997046
W       -3.274875239  13.253695469   7.240001328
W        0.005910813  13.253061977   7.240000117
W        3.284454489  13.252126513   7.239992518
W       -8.191632644  16.093473160   7.240002794
W       -4.912967209  16.093023969   7.240005688
W       -1.633910571  16.091738611   7.240001050
W        1.644384118  16.090969239   7.239997619
W        0.001072881   1.901983414   7.239997430
W        3.279034483   1.901847524   7.239995240
W        6.557794747   1.900727208   7.240001357
W        9.835802182   1.901765102   7.239997534
W       -1.639788606   4.741732522   7.239992993
W        1.639946155   4.740594195   7.239998220
W        4.918061382   4.739941229   7.239999620
W        8.197208312   4.739931700   7.239994484
W        6.559853358  13.254238761   7.239995659
W        9.837257286  13.254157011   7.239997889
W        4.920775133  16.092582721   7.239994615
W        8.196723245  16.092692408   7.239995879
W       13.112010550   1.902842304   7.239993408
W       16.389510937   1.903123073   7.239994494
W       11.466723222   4.735536355   7.239997398
W       14.754065418   4.734941552   7.239996368
Se      -1.639533237   6.632490208   5.563130028
Se       1.640336504   6.633089476   5.566199085
Se       4.919946245   6.632240008   5.565992934
Se       8.198141670   6.630611895   5.562818344
Se      -3.280596801   9.469406818   5.567727094
Se       0.001564520   9.470511916   5.566425987
Se       3.281211748   9.469583336   5.565881764
Se       6.558892993   9.469082085   5.565690087
Se      -1.639534270   6.632488643   8.916848516
Se       1.640335172   6.633090848   8.913785703
Se       4.919947640   6.632242266   8.913992476
Se       8.198142673   6.630612292   8.917161116
Se      -3.280590916   9.469407243   8.912261437
Se       0.001565040   9.470514554   8.913557102
Se       3.281212021   9.469585474   8.914102233
Se       6.558894375   9.469086303   8.914289945
Se      11.506314730   6.653500327   5.599457703
Se      14.714185349   6.653162233   5.599908908
Se       9.836380789   9.469382307   5.566959433
Se      13.109956549   9.431100524   5.599469616
Se      11.506233580   6.653452215   8.880655334
Se      14.714266098   6.653113131   8.880202094
Se       9.836373884   9.469384707   8.913026381
Se      13.109955849   9.431191858   8.880646937
Se      -4.914843573  12.308240497   5.562986784
Se      -1.634230080  12.307492352   5.566400261
Se       1.645310909  12.306664244   5.566234169
Se       4.922926282  12.306147624   5.565702900
Se      -6.552419110  15.146144943   5.566512932
Se      -3.273429750  15.145651439   5.566564002
Se       0.005978655  15.144958314   5.566447363
Se       3.283673643  15.144392983   5.566229259
Se       1.639618234   0.955745702   5.566400361
Se       4.918649756   0.955205852   5.566565020
Se       8.198026982   0.954539132   5.566572156
Se      11.475551736   0.954036571   5.566385012
Se      -0.000781500   3.795458672   5.566568090
Se       3.278671188   3.794673760   5.566403211
Se       6.558085626   3.793983974   5.566528631
Se       9.834607220   3.794756666   5.562999861
Se      -4.914844976  12.308239982   8.916998878
Se      -1.634228111  12.307489958   8.913585701
Se       1.645314247  12.306664886   8.913747176
Se       4.922926341  12.306150183   8.914275337
Se      -6.552420876  15.146141171   8.913480149
Se      -3.273426141  15.145648795   8.913428191
Se       0.005982612  15.144958776   8.913539255
Se       3.283676310  15.144393233   8.913748782
Se       1.639616276   0.955750297   8.913587959
Se       4.918649476   0.955211015   8.913428286
Se       8.198031123   0.954540014   8.913416363
Se      11.475555606   0.954038528   8.913594726
Se      -0.000786073   3.795460415   8.913412959
Se       3.278670357   3.794675635   8.913584995
Se       6.558089938   3.793987591   8.913456927
Se       9.834609124   3.794758493   8.916978944
Se       8.197898482  12.307903682   5.565697686
Se      11.475710502  12.307517252   5.562802262
Se       6.558608034  15.146210461   5.565895120
Se       9.835211343  15.145694738   5.565992917
Se      14.750322078   0.955901279   5.566414357
Se      18.026994094   0.955398470   5.566203546
Se      13.110217203   3.798859766   5.567700392
Se      16.387569375   3.796137538   5.563125613
Se       8.197896001  12.307902624   8.914279962
Se      11.475709820  12.307517782   8.917180713
Se       6.558606029  15.146211581   8.914081033
Se       9.835205866  15.145693230   8.913991435
Se      14.750321470   0.955902550   8.913561090
Se      18.026990163   0.955398189   8.913776551
Se      13.110218409   3.798855307   8.912279527
Se      16.387568413   3.796138065   8.916848806
K_POINTS automatic
4 4 1 0 0 0
