&PROJWFC
prefix='v'
outdir='/scratch/beachk2/Korea/W-V-Se/noSOC/VSe'
degauss=.01
DeltaE=.01
filpdos='/scratch/beachk2/Korea/W-V-Se/noSOC/VSe/projwfc/v'
/
