&CONTROL                         
  calculation = "scf",           
  restart_mode = 'from_scratch'
  max_seconds = 240000            
  pseudo_dir  = "/scratch/beachk2/Korea/W-V-Se",            
  outdir      = "/scratch/beachk2/Korea/W-V-Se/noSOC/VSe",            
  prefix='v'    
  wfcdir="/scratch/beachk2/Korea/W-V-Se/noSOC/VSe"                    
  tstress     =.true.            
  tprnfor     =.true.            
/                                
&SYSTEM                          
  ibrav       = 0,               
  nat         = 107,             
  ntyp        = 3,               
  ecutwfc     = 30,              
  occupations = "smearing",      
  smearing    = "m-v",           
  degauss     = 0.005,           
  !noncolin=.true.                
  !lspinorb=.true.                
  !nspin = 2                     
  !starting_magnetization(2)= 0.5,
  lda_plus_u=.true.              
  lda_plus_u_kind=0              
  Hubbard_U(1)=0                 
  Hubbard_U(2)=3                 
  Hubbard_U(3)=0                 
  U_projection_type='atomic'     
  !starting_spin_angle=.true.    
  !angle1(2)=54, angle2(2)=45,   
/                                
&ELECTRONS                       
  conv_thr    = 1.D-7,           
  mixing_beta = 0.2D0,           
  electron_maxstep=200,          
/                                
&IONS                            
  bfgs_ndim         = 2,         
/                                
ATOMIC_SPECIES
W  183.84  W.pbesol-spn-kjpaw_psl.0.2.3.UPF
V  50.94   V.pbesol-spn-kjpaw_psl.0.2.3.UPF
Se  78.96  Se.pbesol-n-kjpaw_psl.0.2.UPF
CELL_PARAMETERS (angstrom)
 19.6646823883         0.0000000000         0.0000000000
 -9.8323396472        17.0301065891         0.0000000000
  0.0000000000         0.0000000000        19.9999847412
ATOMIC_POSITIONS (angstrom)                     
W       -3.271616968   7.569559596   7.247082194
W       -0.007106952   7.575869867   7.251910201
W        3.291679556   7.575947680   7.253527994
W        6.583279165   7.570911694   7.241753319
W       -4.919445108  10.422840576   7.247222886
W       -1.642414021  10.412753900   7.253191448
W        1.645613251  10.413783437   7.255464295
W        4.926526183  10.411186261   7.256211090
W        9.926286649   7.495676762   7.156219567
V       13.007892178   7.517086052   7.187069197
W        8.212337832  10.390677993   7.244930743
W       11.466067153  10.380947140   7.218994388
W       -6.552838868  13.239894604   7.243997698
W       -3.281564035  13.247332881   7.251849900
W        0.002593367  13.259630441   7.255488124
W        3.284661359  13.257199692   7.258949335
W       -8.194865399  16.088570870   7.245053140
W       -4.915249912  16.094379057   7.248190180
W       -1.632014790  16.104097441   7.253464325
W        1.640845906  16.102196618   7.256290255
W       -0.003267195   1.900194538   7.245076308
W        3.280828976   1.901876232   7.244581934
W        6.562433784   1.906706112   7.241857733
W        9.841745474   1.927051731   7.241807270
W       -1.649146111   4.746450698   7.244023849
W        1.641585413   4.737526767   7.248245001
W        4.925947180   4.741192874   7.241886108
W        8.222483457   4.754721342   7.206379267
W        6.566453263  13.246979093   7.257861488
W        9.839592240  13.243929172   7.246396083
W        4.916555307  16.104555071   7.257883336
W        8.196773428  16.093178204   7.251060787
W       13.098264249   1.927881747   7.245062637
W       16.382898174   1.910340950   7.246413629
W       11.448253819   4.859634031   7.156070711
W       14.717097514   4.749971874   7.218975891
Se      -1.640562516   6.633444177   5.564975002
Se       1.643266199   6.635298182   5.580022495
Se       4.928780779   6.635620932   5.571753026
Se       8.215445094   6.649377677   5.530347367
Se      -3.283461181   9.465225489   5.578078982
Se       0.003460437   9.471146965   5.579756725
Se       3.286495250   9.469648368   5.579908984
Se       6.563777714   9.466912693   5.576578920
Se      -1.650197177   6.625636464   8.931459405
Se       1.642538882   6.630467736   8.922800242
Se       4.945384863   6.627347395   8.922440169
Se       8.299165207   6.623406231   8.883231758
Se      -3.289469636   9.461691379   8.922472317
Se       0.000396199   9.468240771   8.926870601
Se       3.286996899   9.465838987   8.931305768
Se       6.576453051   9.455733932   8.924891636
Se      11.521318028   6.659232130   5.437534899
Se      14.705358763   6.668688936   5.584192600
Se       9.830775022   9.432506950   5.545000965
Se      13.121675284   9.411724596   5.583903780
Se      14.631790938   6.655782802   8.849287177
Se       9.885397996   9.354694072   8.879011418
Se      13.073599353   9.354332843   8.849774036
Se      -4.914453418  12.303525285   5.565133066
Se      -1.634881651  12.308878929   5.579785222
Se       1.645300747  12.310790332   5.583316642
Se       4.923440118  12.307207806   5.584199103
Se      -6.553242201  15.141526637   5.573118364
Se      -3.270881457  15.146926543   5.579946140
Se       0.005463998  15.152714175   5.579932624
Se       3.281232009  15.151443347   5.584216723
Se       1.638445828   0.953598682   5.570918229
Se       4.919763897   0.954331175   5.569914664
Se       8.204483653   0.961909309   5.571720702
Se      11.473978540   0.962112165   5.576708298
Se      -0.002534248   3.795390874   5.573111031
Se       3.279767774   3.794970708   5.569898303
Se       6.558272183   3.793942993   5.558402567
Se       9.859757195   3.801238052   5.530314509
Se      -4.925998587  12.299229456   8.931296642
Se      -1.639013677  12.307693718   8.926845694
Se       1.642699781  12.309270254   8.929885683
Se       4.926065755  12.304839725   8.932509051
Se      -6.556152349  15.138242864   8.918003948
Se      -3.275427215  15.148686273   8.922727455
Se       0.002327471  15.155066815   8.931342275
Se       3.280545165  15.154854411   8.932554428
Se       1.639076156   0.953950488   8.918354791
Se       4.922887501   0.960700163   8.919815706
Se       8.205550763   0.980391395   8.922435512
Se      11.470559222   0.978666307   8.924998524
Se      -0.006864652   3.794459368   8.918084711
Se       3.286865001   3.794462954   8.919874960
Se       6.587965344   3.811060741   8.901615037
Se       9.879206904   3.886844794   8.883157737
Se       8.198712740  12.294257249   5.577083455
Se      11.473586193  12.294554874   5.564237077
Se       6.553592358  15.144657104   5.584193104
Se       9.830618412  15.140595504   5.572049691
Se      14.739897829   0.964271106   5.577084044
Se      18.020982208   0.954317212   5.572088102
Se      13.077821599   3.808342935   5.544962921
Se      16.378079188   3.799935378   5.564087673
Se       8.214144346  12.283126357   8.925423585
Se      11.474716665  12.269590896   8.909981768
Se       6.559231282  15.147885765   8.928229283
Se       9.836287074  15.137488148   8.922452079
Se      14.738042555   0.983169467   8.925566313
Se      18.021147721   0.960762974   8.922433031
Se      13.037701504   3.894783630   8.879110273
Se      16.357006950   3.813370217   8.910197447
K_POINTS automatic
2 2 1 0 0 0
