&CONTROL
  calculation = "nscf",
  max_seconds = 240000
  !restart_mode = 'from_scratch'
  pseudo_dir  = "/scratch/beachk2/Korea/W-V-Se",
  outdir      = "/scratch/beachk2/Korea/W-V-Se/noSOC/Sevac",
  prefix='v'
  wfcdir="/scratch/beachk2/Korea/W-V-Se/noSOC/Sevac"
  tstress     =.true.
  tprnfor     =.true.
/
&SYSTEM
  ibrav       = 0,
  nat         = 107,
  ntyp        = 3,
  ecutwfc     = 30,
  occupations = "smearing",
  smearing    = "m-v",
  degauss     = 0.005,
  !noncolin=.true.
  lspinorb=.false. 
  !nspin = 2
  !starting_magnetization(2)= 0.5,
  lda_plus_u=.true.
  lda_plus_u_kind=0
  Hubbard_U(1)=0
  Hubbard_U(2)=3
  Hubbard_U(3)=0
  U_projection_type='atomic'
  !starting_spin_angle=.true.
  !angle1(2)=54, angle2(2)=45,
/
&ELECTRONS
  conv_thr    = 1.D-7,
  mixing_beta = 0.2D0,
  electron_maxstep=200,
/
&IONS
  bfgs_ndim         = 2,
/
ATOMIC_SPECIES
W  183.84  W.pbesol-spn-kjpaw_psl.0.2.3.UPF
V  50.94   V.pbesol-spn-kjpaw_psl.0.2.3.UPF
Se  78.96  Se.pbesol-n-kjpaw_psl.0.2.UPF
CELL_PARAMETERS (angstrom)
 19.6646823883         0.0000000000         0.0000000000
 -9.8323396472        17.0301065891         0.0000000000
  0.0000000000         0.0000000000        19.9999847412
ATOMIC_POSITIONS (angstrom)
W       -3.260255289   7.576565333   7.255999252
W        0.008037832   7.566130498   7.267450059
W        3.282391599   7.563718854   7.253416868
W        6.557749340   7.559958533   7.248236495
W       -4.908490361  10.438225320   7.252297983
W       -1.639169567  10.426484664   7.264581784
W        1.640620694  10.414518354   7.264862402
W        4.918099257  10.411021028   7.256067688
W        9.816982345   7.567095574   7.253247590
V       13.109089188   7.577384638   7.220781001
W        8.195991845  10.416428524   7.256801595
W       11.473944651  10.437818063   7.253296685
W       -6.541773385  13.275058257   7.236766286
W       -3.290559309  13.278143277   7.240533249
W       -0.010838713  13.265331554   7.254086763
W        3.275877626  13.257205633   7.257841317
W       -8.154860469  16.114898939   7.200908867
W       -4.914715146  16.225541170   7.139764119
W       -1.674000717  16.114859486   7.202836004
W        1.625425647  16.099206994   7.254012829
W        0.030665709   1.897913741   7.244197599
W        3.393151565   1.835898952   7.139598136
W        6.442126847   1.835920404   7.139774847
W        9.806593146   1.903108212   7.240518252
W       -1.627630083   4.734785792   7.262314870
W        1.658310409   4.717002458   7.244260605
W        4.917856315   4.697280246   7.201082663
W        8.183673283   4.720354560   7.236666077
W        6.561771528  13.257929753   7.255996235
W        9.850862496  13.263721542   7.248256246
W        4.919988184  16.094408117   7.264712463
W        8.209919126  16.098145183   7.253339803
W       13.102021879   1.898865584   7.264394280
W       16.403099902   1.902463189   7.267436797
W       11.458095972   4.724829130   7.252070918
W       14.759053075   4.727771190   7.255873515
Se      -1.628225592   6.625903050   5.583193892
Se       1.640560198   6.623406112   5.582067331
Se       4.917031726   6.629305472   5.563930781
Se       8.194569202   6.621212521   5.566663765
Se      -3.271642193   9.473881854   5.586068969
Se       0.000103218   9.466210289   5.595208210
Se       3.275416127   9.466601989   5.584490265
Se       6.558596223   9.466161806   5.581057246
Se      -1.635865713   6.625328802   8.943141571
Se       1.657986681   6.603700651   8.933299930
Se       4.921586660   6.579881773   8.905875598
Se       8.184611844   6.603372051   8.930100582
Se      -3.281919495   9.473874503   8.931441145
Se       0.000371539   9.468791709   8.939496661
Se       3.283926003   9.457998994   8.932876289
Se       6.557440284   9.456321267   8.927063780
Se      11.494987276   6.642826915   5.602350782
Se      14.730824621   6.643580603   5.603265769
Se       9.837406913   9.468971954   5.585927771
Se      13.113593807   9.445851834   5.603252791
Se      11.509795845   6.650906025   8.883536902
Se      14.710382726   6.655207302   8.883085606
Se       9.839735486   9.467564623   8.926059372
Se      13.113857223   9.429068445   8.882906485
Se      -4.914233624  12.315514650   5.565042646
Se      -1.643446904  12.312281874   5.580315377
Se       1.635423629  12.307324647   5.586716357
Se       4.917796302  12.309106465   5.583222932
Se      -6.524174283  15.152060249   5.525805957
Se      -3.304362484  15.152030164   5.527471851
Se      -0.000599842  15.148685927   5.566095224
Se       3.278141214  15.152640708   5.586566433
Se       1.658697926   0.978438647   5.526734048
Se       4.917633392   0.955753279   5.358583177
Se       8.176953761   0.978153735   5.527476171
Se      11.466646058   0.959564660   5.580266280
Se       0.006863588   3.791122030   5.578779211
Se       3.268571645   3.766814390   5.526830356
Se       6.566995388   3.766547234   5.525842656
Se       9.828760629   3.790757463   5.565167343
Se      -4.918032812  12.333076076   8.927917942
Se      -1.655544317  12.336082973   8.930797056
Se       1.631173024  12.317391098   8.932095168
Se       4.919741117  12.308052661   8.928920671
Se      -6.489116291  15.242046856   8.864679432
Se      -3.341747726  15.245683064   8.867308997
Se      -0.044659678  15.174183084   8.909297860
Se       3.267368710  15.151383792   8.932089352
Se       1.761401274   0.959532732   8.868900018
Se       8.077207918   0.963652806   8.867315533
Se      11.440102524   0.958198960   8.930661733
Se       0.026100453   3.779930407   8.928922970
Se       3.336219070   3.687217129   8.868999712
Se       6.506751695   3.691206743   8.864754992
Se       9.811803473   3.785376070   8.927554324
Se       8.200403025  12.309642289   5.581126484
Se      11.482119720  12.315509101   5.566603213
Se       6.558450109  15.152724913   5.584398964
Se       9.836278437  15.149691502   5.563727206
Se      14.753455063   0.959307044   5.595178598
Se      18.035562745   0.960070280   5.581978528
Se      13.110908350   3.788778763   5.585610204
Se      16.398861267   3.789724725   5.583272363
Se       8.208303206  12.315617991   8.926978887
Se      11.492550106  12.333120754   8.930298570
Se       6.570130081  15.149700859   8.932753686
Se       9.881456245  15.170580429   8.905902650
Se      14.751247458   0.957758990   8.939267558
Se      18.061399002   0.954807438   8.933297567
Se      13.105698286   3.797619755   8.931434590
Se      16.395414290   3.796620763   8.942981329
K_POINTS automatic
4 4 1 0 0 0
