&inputpp
    prefix  = 'v'
    outdir  = '/scratch/beachk2/Korea/W-V-Se/noSOC/Wvac',
    filplot = '/scratch/beachk2/Korea/W-V-Se/noSOC/Wvac/m2V.STM'
    plot_num= 5
    !spin_component=0
    sample_bias=-0.1469973 
    !emin = -0.23
    !emax = 0.0717
 /
&plot
  nfile=1
  iflag=3
  output_format=5
  fileout='/scratch/beachk2/Korea/W-V-Se/noSOC/Wvac/m2V.xsf'
/
