&CONTROL
  calculation = "scf",
  !restart_mode = 'from_scratch'
  max_seconds = 240000
  pseudo_dir  = "/scratch/beachk2/Korea/W-V-Se",
  outdir      = "/scratch/beachk2/Korea/W-V-Se/noSOC/Wvac",
  prefix='v'
  wfcdir="/scratch/beachk2/Korea/W-V-Se/noSOC/Wvac"
  tstress     =.false.
  tprnfor     =.false.
/
&SYSTEM
  ibrav       = 0,
  nat         = 107,
  ntyp        = 2,
  ecutwfc     = 30,
  occupations = "smearing",
  smearing    = "m-v",
  degauss     = 0.005,
  !noncolin=.true.
  !lspinorb=.true. 
  !nspin = 2
  !starting_magnetization(2)= 0.5,
  !lda_plus_u=.true.
  !lda_plus_u_kind=1
  !Hubbard_U(1)=0
  !Hubbard_U(2)=3
  !Hubbard_U(3)=0
  !U_projection_type='atomic'
  !starting_spin_angle=.true.
  !angle1(2)=54, angle2(2)=45,
/
&ELECTRONS
  conv_thr    = 1.D-7,
  mixing_beta = 0.2D0,
  electron_maxstep=200,
/
&IONS
  bfgs_ndim         = 2,
/
&CELL
press=0
cell_dofree='all'
press_conv_thr=0.1
/
ATOMIC_SPECIES
W  183.84  W.pbesol-spn-kjpaw_psl.0.2.3.UPF
Se  78.96  Se.pbesol-n-kjpaw_psl.0.2.UPF
CELL_PARAMETERS (angstrom)
 19.6646823883         0.0000000000         0.0000000000
 -9.8323396472        17.0301065891         0.0000000000
  0.0000000000         0.0000000000        19.9999847412
ATOMIC_POSITIONS (angstrom)
W  -3.275455224 7.545506601 7.240041064    
W  0.021307581 7.578844750 7.239845794     
W  3.279806707 7.575090211 7.239987566     
W  6.538039570 7.578205477 7.239857134     
W  -4.942004915 10.433739526 7.240126064   
W  -1.649293937 10.408609316 7.240141833   
W  1.638210858 10.415805433 7.239993707    
W  4.922806579 10.415786112 7.239999762    
W  9.834484326 7.544692245 7.240054326     
W  8.209828397 10.408398108 7.240133378    
W  11.502179932 10.433260369 7.240116606   
W  -6.551843348 13.266654245 7.240196563   
W  -3.263939414 13.271027883 7.239848839   
W  0.001689258 13.251195676 7.239987451    
W  3.280973657 13.254201405 7.239829135    
W  -8.190959253 16.096258798 7.240011028   
W  -4.912753571 16.095838008 7.240045954   
W  -1.637358359 16.093751328 7.240008643   
W  1.643965426 16.095567141 7.239942918    
W  0.004532282 1.900224543 7.239957285     
W  3.280009690 1.901349795 7.239844500     
W  6.555443095 1.899195231 7.239977749     
W  9.826245925 1.883724105 7.239849153     
W  -1.627045718 4.734370174 7.240095570    
W  1.643276362 4.738440863 7.239993270     
W  4.915963320 4.737899642 7.239993996     
W  8.186090820 4.733241768 7.240108272     
W  6.559981403 13.251522708 7.239984131    
W  9.825069331 13.271480025 7.239876105    
W  4.917651287 16.095934374 7.239934777    
W  8.198661130 16.094721542 7.239992254    
W  13.112408871 1.916490400 7.240103906    
W  16.398503675 1.884734652 7.239828853    
W  11.444305654 4.755501980 7.240041474    
W  14.778906743 4.756290278 7.240115593    
Se -1.615573641 6.627967232 5.566490304    
Se 1.648387172 6.628385563 5.560547624     
Se 4.910840446 6.627861321 5.560577333     
Se 8.174460753 6.626915061 5.566547858     
Se -3.301387073 9.455533213 5.576054124    
Se -0.003075683 9.471194375 5.564637249    
Se 3.280442635 9.470569191 5.566538626     
Se 6.563623131 9.470708292 5.564673482     
Se -1.615443667 6.628050463 8.913480188    
Se 1.648325106 6.628425583 8.919331450     
Se 4.910887698 6.627897170 8.919315333     
Se 8.174328941 6.626998816 8.913444816     
Se -3.301391419 9.455490022 8.904159066    
Se -0.002971395 9.471062669 8.915331429    
Se 3.280432353 9.470569885 8.913453659     
Se 6.563536278 9.470587657 8.915312596     
Se 11.463662875 6.625959199 5.578318662    
Se 14.759273017 6.627099048 5.578689472    
Se 9.861424795 9.454882742 5.576096588     
Se 13.112403697 9.481735066 5.578443996    
Se 11.463567327 6.625960460 8.901741456    
Se 14.759342839 6.627032714 8.901472872    
Se 9.861425235 9.454839753 8.904104341     
Se 13.112462550 9.481898707 8.901887126    
Se -4.906224979 12.329872929 5.566466478   
Se -1.637494269 12.302949239 5.564696972   
Se 1.641723759 12.307702970 5.564865745    
Se 4.920172802 12.307765216 5.564866928    
Se -6.551849494 15.153021876 5.562698576   
Se -3.273244910 15.155173264 5.560531984   
Se 0.004360110 15.145916778 5.566490039    
Se 3.281004795 15.146986713 5.564789897    
Se 1.642739056 0.956516040 5.563990870     
Se 4.917279098 0.955972410 5.563976101     
Se 8.189862526 0.949635729 5.560548689     
Se 11.477791496 0.959112545 5.564647447    
Se 0.006715405 3.791171527 5.562604957     
Se 3.279551478 3.791590350 5.563936776     
Se 6.552387719 3.790085333 5.562642633     
Se 9.820116692 3.776454861 5.566369418     
Se -4.906012353 12.329950920 8.913616476   
Se -1.637544812 12.303089213 8.915279267   
Se 1.641795280 12.307735751 8.915007929    
Se 4.920103017 12.307810576 8.915018955    
Se -6.551871720 15.153129629 8.917495492   
Se -3.273205041 15.155102127 8.919400157   
Se 0.004385980 15.145934770 8.913490044    
Se 3.281011182 15.146927202 8.915043322    
Se 1.642790483 0.956593705 8.915869114     
Se 4.917204404 0.956067773 8.915938180     
Se 8.189935183 0.949686355 8.919331548     
Se 11.477653263 0.959093651 8.915270661    
Se 0.006765308 3.791114424 8.917456327     
Se 3.279551544 3.791495368 8.915950219     
Se 6.552335318 3.790045568 8.917442540     
Se 9.820157442 3.776312732 8.913602561     
Se 8.198888572 12.302983907 5.564736646    
Se 11.467068131 12.329809137 5.566623630   
Se 6.557422598 15.146427473 5.566513140    
Se 9.834436818 15.155764571 5.560529143    
Se 14.747447926 0.959563111 5.564661955    
Se 18.035080617 0.950772690 5.560516152    
Se 13.111821989 3.823766536 5.576049897    
Se 16.403465335 3.777685146 5.566452465    
Se 8.198919749 12.303109314 8.915245109    
Se 11.466888751 12.329866410 8.913491666   
Se 6.557405243 15.146451406 8.913445519    
Se 9.834410991 15.155736789 8.919394861    
Se 14.747592051 0.959544789 8.915233427    
Se 18.035027205 0.950824628 8.919331108    
Se 13.111796101 3.823785117 8.904104644    
Se 16.403472763 3.777505784 8.913533723    
K_POINTS automatic
2 2 1 0 0 0
